; benchmark generated from python API
(set-info :status unknown)
(declare-fun x_epoch () (_ BitVec 32))
(declare-fun x_plus_epoch () (_ BitVec 32))
(declare-fun x_plus_month () (_ BitVec 32))
(declare-fun x_plus_year () (_ BitVec 32))
(declare-fun x_plus_day () (_ BitVec 32))
(assert
 (bvsle (_ bv4294930771 32) x_epoch))
(assert
 (bvsge (_ bv36523 32) x_epoch))
(assert
 (bvsge x_epoch (_ bv8371 32)))
(assert
 (bvsle (_ bv4294930771 32) x_plus_epoch))
(assert
 (bvsge (_ bv36523 32) x_plus_epoch))
(assert
 (let (($x29089 (= x_plus_month (_ bv11 32))))
 (let (($x31971 (= x_plus_month (_ bv9 32))))
 (let (($x6468 (= x_plus_month (_ bv6 32))))
 (let (($x21277 (= x_plus_month (_ bv4 32))))
 (let ((?x3485 (ite (or $x21277 $x6468 $x31971 $x29089) (_ bv30 32) (_ bv31 32))))
 (let (($x26904 (and (= (bvsmod x_plus_year (_ bv4 32)) (_ bv0 32)) (and (distinct (bvsmod x_plus_year (_ bv100 32)) (_ bv0 32)) true))))
 (let (($x16259 (or $x26904 (= (bvsmod x_plus_year (_ bv400 32)) (_ bv0 32)))))
 (let (($x4206 (= x_plus_month (_ bv2 32))))
 (let (($x63335 (bvsle (_ bv1 32) x_plus_day)))
 (let (($x21307 (bvsle (_ bv1 32) x_plus_month)))
 (let (($x67145 (bvsle (_ bv1900 32) x_plus_year)))
 (and $x67145 (bvsge (_ bv2100 32) x_plus_year) $x21307 (bvsge (_ bv12 32) x_plus_month) $x63335 (bvsle x_plus_day (ite $x4206 (ite $x16259 (_ bv29 32) (_ bv28 32)) ?x3485)))))))))))))))
(assert
 (let (($x26904 (and (= (bvsmod x_plus_year (_ bv4 32)) (_ bv0 32)) (and (distinct (bvsmod x_plus_year (_ bv100 32)) (_ bv0 32)) true))))
 (let (($x16259 (or $x26904 (= (bvsmod x_plus_year (_ bv400 32)) (_ bv0 32)))))
 (let ((?x4554 (ite (= (_ bv2 32) x_plus_month) (ite $x16259 (_ bv31 32) (_ bv31 32)) (ite (= (_ bv1 32) x_plus_month) (ite $x16259 (_ bv0 32) (_ bv0 32)) (_ bv0 32)))))
 (let ((?x755 (ite (= (_ bv4 32) x_plus_month) (ite $x16259 (_ bv91 32) (_ bv90 32)) (ite (= (_ bv3 32) x_plus_month) (ite $x16259 (_ bv60 32) (_ bv59 32)) ?x4554))))
 (let ((?x20866 (ite (= (_ bv6 32) x_plus_month) (ite $x16259 (_ bv152 32) (_ bv151 32)) (ite (= (_ bv5 32) x_plus_month) (ite $x16259 (_ bv121 32) (_ bv120 32)) ?x755))))
 (let ((?x3881 (ite (= (_ bv8 32) x_plus_month) (ite $x16259 (_ bv213 32) (_ bv212 32)) (ite (= (_ bv7 32) x_plus_month) (ite $x16259 (_ bv182 32) (_ bv181 32)) ?x20866))))
 (let ((?x34468 (ite (= (_ bv10 32) x_plus_month) (ite $x16259 (_ bv274 32) (_ bv273 32)) (ite (= (_ bv9 32) x_plus_month) (ite $x16259 (_ bv244 32) (_ bv243 32)) ?x3881))))
 (let ((?x21923 (ite (= (_ bv12 32) x_plus_month) (ite $x16259 (_ bv335 32) (_ bv334 32)) (ite (= (_ bv11 32) x_plus_month) (ite $x16259 (_ bv305 32) (_ bv304 32)) ?x34468))))
 (let ((?x28710 (bvadd (bvmul (_ bv365 32) (bvsub x_plus_year (_ bv1 32))) (bvsdiv (bvsub x_plus_year (_ bv1 32)) (_ bv4 32)))))
 (let ((?x32010 (bvadd (bvsub ?x28710 (bvsdiv (bvsub x_plus_year (_ bv1 32)) (_ bv100 32))) (bvsdiv (bvsub x_plus_year (_ bv1 32)) (_ bv400 32)))))
 (= x_plus_epoch (bvsub (bvadd (bvadd ?x32010 ?x21923) (bvsub x_plus_day (_ bv1 32))) (_ bv730179 32))))))))))))))
(assert
 (let ((?x956 (bvadd x_epoch (_ bv730179 32))))
 (let ((?x5257 (bvsmod ?x956 (_ bv146097 32))))
 (let ((?x3132 (bvsdiv ?x5257 (_ bv36524 32))))
 (let ((?x2099 (ite (bvsle (_ bv4 32) ?x3132) (_ bv3 32) ?x3132)))
 (let ((?x1271 (bvsub ?x5257 (bvmul ?x2099 (_ bv36524 32)))))
 (let ((?x3687 (bvsmod ?x1271 (_ bv1461 32))))
 (let ((?x4574 (bvsdiv ?x3687 (_ bv365 32))))
 (let ((?x2232 (ite (bvsle (_ bv4 32) ?x4574) (_ bv3 32) ?x4574)))
 (let ((?x2411 (bvadd (bvadd (bvmul (bvsdiv ?x956 (_ bv146097 32)) (_ bv400 32)) (bvmul ?x2099 (_ bv100 32))) (bvmul (bvsdiv ?x1271 (_ bv1461 32)) (_ bv4 32)))))
 (let ((?x4535 (bvadd (bvadd ?x2411 ?x2232) (_ bv1 32))))
 (let (($x2878 (or (and (= (bvsmod ?x4535 (_ bv4 32)) (_ bv0 32)) (and (distinct (bvsmod ?x4535 (_ bv100 32)) (_ bv0 32)) true)) (= (bvsmod ?x4535 (_ bv400 32)) (_ bv0 32)))))
 (let ((?x1429 (bvsub ?x3687 (bvmul ?x2232 (_ bv365 32)))))
 (let ((?x1425 (ite $x2878 (_ bv31 32) (_ bv31 32))))
 (let (($x4045 (bvsge ?x1429 ?x1425)))
 (let ((?x6705 (ite $x4045 (bvadd (bvsub ?x1429 ?x1425) (_ bv1 32)) (bvadd (bvsub ?x1429 (ite $x2878 (_ bv0 32) (_ bv0 32))) (_ bv1 32)))))
 (let ((?x713 (ite $x2878 (_ bv60 32) (_ bv59 32))))
 (let (($x1184 (bvsge ?x1429 ?x713)))
 (let ((?x2863 (ite $x2878 (_ bv91 32) (_ bv90 32))))
 (let (($x4722 (bvsge ?x1429 ?x2863)))
 (let ((?x6431 (ite $x4722 (bvadd (bvsub ?x1429 ?x2863) (_ bv1 32)) (ite $x1184 (bvadd (bvsub ?x1429 ?x713) (_ bv1 32)) ?x6705))))
 (let ((?x4959 (ite $x2878 (_ bv121 32) (_ bv120 32))))
 (let (($x40181 (bvsge ?x1429 ?x4959)))
 (let ((?x524 (ite $x2878 (_ bv152 32) (_ bv151 32))))
 (let (($x4176 (bvsge ?x1429 ?x524)))
 (let ((?x3345 (ite $x4176 (bvadd (bvsub ?x1429 ?x524) (_ bv1 32)) (ite $x40181 (bvadd (bvsub ?x1429 ?x4959) (_ bv1 32)) ?x6431))))
 (let ((?x1031 (ite $x2878 (_ bv182 32) (_ bv181 32))))
 (let (($x6697 (bvsge ?x1429 ?x1031)))
 (let ((?x2124 (ite $x2878 (_ bv213 32) (_ bv212 32))))
 (let (($x997 (bvsge ?x1429 ?x2124)))
 (let ((?x33122 (ite $x997 (bvadd (bvsub ?x1429 ?x2124) (_ bv1 32)) (ite $x6697 (bvadd (bvsub ?x1429 ?x1031) (_ bv1 32)) ?x3345))))
 (let ((?x2702 (ite $x2878 (_ bv244 32) (_ bv243 32))))
 (let (($x3265 (bvsge ?x1429 ?x2702)))
 (let ((?x689 (ite $x2878 (_ bv274 32) (_ bv273 32))))
 (let (($x4118 (bvsge ?x1429 ?x689)))
 (let ((?x25766 (ite $x4118 (bvadd (bvsub ?x1429 ?x689) (_ bv1 32)) (ite $x3265 (bvadd (bvsub ?x1429 ?x2702) (_ bv1 32)) ?x33122))))
 (let ((?x4827 (ite $x2878 (_ bv305 32) (_ bv304 32))))
 (let (($x1735 (bvsge ?x1429 ?x4827)))
 (let ((?x1045 (ite $x2878 (_ bv335 32) (_ bv334 32))))
 (let (($x5071 (bvsge ?x1429 ?x1045)))
 (let ((?x4133 (ite $x5071 (bvadd (bvsub ?x1429 ?x1045) (_ bv1 32)) (ite $x1735 (bvadd (bvsub ?x1429 ?x4827) (_ bv1 32)) ?x25766))))
 (let ((?x90921 (bvadd (bvmul (_ bv0 32) (_ bv12 32)) (_ bv1 32))))
 (let ((?x4347 (ite $x4176 (_ bv6 32) (ite $x40181 (_ bv5 32) (ite $x4722 (_ bv4 32) (ite $x1184 (_ bv3 32) (ite $x4045 (_ bv2 32) (_ bv1 32))))))))
 (let ((?x3058 (ite $x1735 (_ bv11 32) (ite $x4118 (_ bv10 32) (ite $x3265 (_ bv9 32) (ite $x997 (_ bv8 32) (ite $x6697 (_ bv7 32) ?x4347)))))))
 (let ((?x4212 (ite $x5071 (_ bv12 32) ?x3058)))
 (let ((?x64472 (bvadd ?x4212 ?x90921)))
 (let ((?x9477 (bvsub (ite (bvuge ?x64472 (_ bv2147483648 32)) (bvsub ?x64472 (_ bv0 32)) ?x64472) (_ bv1 32))))
 (let ((?x90810 (bvsmod ?x9477 (_ bv12 32))))
 (let ((?x39250 (bvadd ?x90810 (_ bv1 32))))
 (let ((?x59770 (ite (or (= ?x39250 (_ bv4 32)) (= ?x39250 (_ bv6 32)) (= ?x39250 (_ bv9 32)) (= ?x39250 (_ bv11 32))) (_ bv30 32) (_ bv31 32))))
 (let ((?x40296 (bvsdiv ?x9477 (_ bv12 32))))
 (let ((?x3145 (ite (and (bvuge ?x9477 (_ bv2147483648 32)) (and (distinct (_ bv0 32) ?x90810) true)) (bvsub ?x40296 (_ bv1 32)) ?x40296)))
 (let ((?x56113 (bvadd (_ bv0 32) ?x3145)))
 (let ((?x34535 (bvadd ?x4535 ?x56113)))
 (let (($x35652 (or (and (= (bvsmod ?x34535 (_ bv4 32)) (_ bv0 32)) (and (distinct (bvsmod ?x34535 (_ bv100 32)) (_ bv0 32)) true)) (= (bvsmod ?x34535 (_ bv400 32)) (_ bv0 32)))))
 (let ((?x6564 (ite (= ?x39250 (_ bv2 32)) (ite $x35652 (_ bv29 32) (_ bv28 32)) ?x59770)))
 (let (($x1231 (bvsgt (_ bv1 32) ?x4133)))
 (let ((?x19415 (ite $x1231 (_ bv1 32) (ite (bvsgt ?x4133 ?x6564) ?x6564 ?x4133))))
 (let ((?x88766 (ite (bvsgt (_ bv1 32) ?x19415) (_ bv1 32) (ite (bvsgt ?x19415 ?x6564) ?x6564 ?x19415))))
 (let ((?x85114 (ite (= (_ bv2 32) ?x39250) (ite $x35652 (_ bv31 32) (_ bv31 32)) (ite (= (_ bv1 32) ?x39250) (ite $x35652 (_ bv0 32) (_ bv0 32)) (_ bv0 32)))))
 (let ((?x46832 (ite (= (_ bv4 32) ?x39250) (ite $x35652 (_ bv91 32) (_ bv90 32)) (ite (= (_ bv3 32) ?x39250) (ite $x35652 (_ bv60 32) (_ bv59 32)) ?x85114))))
 (let ((?x36283 (ite (= (_ bv6 32) ?x39250) (ite $x35652 (_ bv152 32) (_ bv151 32)) (ite (= (_ bv5 32) ?x39250) (ite $x35652 (_ bv121 32) (_ bv120 32)) ?x46832))))
 (let ((?x76216 (ite (= (_ bv8 32) ?x39250) (ite $x35652 (_ bv213 32) (_ bv212 32)) (ite (= (_ bv7 32) ?x39250) (ite $x35652 (_ bv182 32) (_ bv181 32)) ?x36283))))
 (let ((?x70100 (ite (= (_ bv10 32) ?x39250) (ite $x35652 (_ bv274 32) (_ bv273 32)) (ite (= (_ bv9 32) ?x39250) (ite $x35652 (_ bv244 32) (_ bv243 32)) ?x76216))))
 (let ((?x87402 (ite (= (_ bv12 32) ?x39250) (ite $x35652 (_ bv335 32) (_ bv334 32)) (ite (= (_ bv11 32) ?x39250) (ite $x35652 (_ bv305 32) (_ bv304 32)) ?x70100))))
 (let ((?x39211 (bvadd (bvmul (_ bv365 32) (bvsub ?x34535 (_ bv1 32))) (bvsdiv (bvsub ?x34535 (_ bv1 32)) (_ bv4 32)))))
 (let ((?x26280 (bvadd (bvsub ?x39211 (bvsdiv (bvsub ?x34535 (_ bv1 32)) (_ bv100 32))) (bvsdiv (bvsub ?x34535 (_ bv1 32)) (_ bv400 32)))))
 (let ((?x6181 (bvadd (bvadd (bvsub (bvadd (bvadd ?x26280 ?x87402) (bvsub ?x88766 (_ bv1 32))) (_ bv730179 32)) (_ bv0 32)) (_ bv730179 32))))
 (let ((?x43907 (bvsmod ?x6181 (_ bv146097 32))))
 (let ((?x41372 (bvsdiv ?x43907 (_ bv36524 32))))
 (let ((?x58359 (ite (bvsle (_ bv4 32) ?x41372) (_ bv3 32) ?x41372)))
 (let ((?x2222 (bvsub ?x43907 (bvmul ?x58359 (_ bv36524 32)))))
 (let ((?x88724 (bvsmod ?x2222 (_ bv1461 32))))
 (let ((?x90798 (bvsdiv ?x88724 (_ bv365 32))))
 (let ((?x49992 (ite (bvsle (_ bv4 32) ?x90798) (_ bv3 32) ?x90798)))
 (let ((?x26649 (bvadd (bvadd (bvmul (bvsdiv ?x6181 (_ bv146097 32)) (_ bv400 32)) (bvmul ?x58359 (_ bv100 32))) (bvmul (bvsdiv ?x2222 (_ bv1461 32)) (_ bv4 32)))))
 (let ((?x32031 (bvadd (bvadd ?x26649 ?x49992) (_ bv1 32))))
 (let (($x5114 (= (_ bv0 32) (_ bv0 32))))
 (let ((?x55795 (ite $x5114 ?x34535 ?x32031)))
 (= x_plus_year ?x55795))))))))))))))))))))))))))))))))))))))))))))))))))))))))))))))))))))))))))))))))
(assert
 (let ((?x956 (bvadd x_epoch (_ bv730179 32))))
 (let ((?x5257 (bvsmod ?x956 (_ bv146097 32))))
 (let ((?x3132 (bvsdiv ?x5257 (_ bv36524 32))))
 (let ((?x2099 (ite (bvsle (_ bv4 32) ?x3132) (_ bv3 32) ?x3132)))
 (let ((?x1271 (bvsub ?x5257 (bvmul ?x2099 (_ bv36524 32)))))
 (let ((?x3687 (bvsmod ?x1271 (_ bv1461 32))))
 (let ((?x4574 (bvsdiv ?x3687 (_ bv365 32))))
 (let ((?x2232 (ite (bvsle (_ bv4 32) ?x4574) (_ bv3 32) ?x4574)))
 (let ((?x2411 (bvadd (bvadd (bvmul (bvsdiv ?x956 (_ bv146097 32)) (_ bv400 32)) (bvmul ?x2099 (_ bv100 32))) (bvmul (bvsdiv ?x1271 (_ bv1461 32)) (_ bv4 32)))))
 (let ((?x4535 (bvadd (bvadd ?x2411 ?x2232) (_ bv1 32))))
 (let (($x2878 (or (and (= (bvsmod ?x4535 (_ bv4 32)) (_ bv0 32)) (and (distinct (bvsmod ?x4535 (_ bv100 32)) (_ bv0 32)) true)) (= (bvsmod ?x4535 (_ bv400 32)) (_ bv0 32)))))
 (let ((?x1429 (bvsub ?x3687 (bvmul ?x2232 (_ bv365 32)))))
 (let ((?x1425 (ite $x2878 (_ bv31 32) (_ bv31 32))))
 (let (($x4045 (bvsge ?x1429 ?x1425)))
 (let ((?x6705 (ite $x4045 (bvadd (bvsub ?x1429 ?x1425) (_ bv1 32)) (bvadd (bvsub ?x1429 (ite $x2878 (_ bv0 32) (_ bv0 32))) (_ bv1 32)))))
 (let ((?x713 (ite $x2878 (_ bv60 32) (_ bv59 32))))
 (let (($x1184 (bvsge ?x1429 ?x713)))
 (let ((?x2863 (ite $x2878 (_ bv91 32) (_ bv90 32))))
 (let (($x4722 (bvsge ?x1429 ?x2863)))
 (let ((?x6431 (ite $x4722 (bvadd (bvsub ?x1429 ?x2863) (_ bv1 32)) (ite $x1184 (bvadd (bvsub ?x1429 ?x713) (_ bv1 32)) ?x6705))))
 (let ((?x4959 (ite $x2878 (_ bv121 32) (_ bv120 32))))
 (let (($x40181 (bvsge ?x1429 ?x4959)))
 (let ((?x524 (ite $x2878 (_ bv152 32) (_ bv151 32))))
 (let (($x4176 (bvsge ?x1429 ?x524)))
 (let ((?x3345 (ite $x4176 (bvadd (bvsub ?x1429 ?x524) (_ bv1 32)) (ite $x40181 (bvadd (bvsub ?x1429 ?x4959) (_ bv1 32)) ?x6431))))
 (let ((?x1031 (ite $x2878 (_ bv182 32) (_ bv181 32))))
 (let (($x6697 (bvsge ?x1429 ?x1031)))
 (let ((?x2124 (ite $x2878 (_ bv213 32) (_ bv212 32))))
 (let (($x997 (bvsge ?x1429 ?x2124)))
 (let ((?x33122 (ite $x997 (bvadd (bvsub ?x1429 ?x2124) (_ bv1 32)) (ite $x6697 (bvadd (bvsub ?x1429 ?x1031) (_ bv1 32)) ?x3345))))
 (let ((?x2702 (ite $x2878 (_ bv244 32) (_ bv243 32))))
 (let (($x3265 (bvsge ?x1429 ?x2702)))
 (let ((?x689 (ite $x2878 (_ bv274 32) (_ bv273 32))))
 (let (($x4118 (bvsge ?x1429 ?x689)))
 (let ((?x25766 (ite $x4118 (bvadd (bvsub ?x1429 ?x689) (_ bv1 32)) (ite $x3265 (bvadd (bvsub ?x1429 ?x2702) (_ bv1 32)) ?x33122))))
 (let ((?x4827 (ite $x2878 (_ bv305 32) (_ bv304 32))))
 (let (($x1735 (bvsge ?x1429 ?x4827)))
 (let ((?x1045 (ite $x2878 (_ bv335 32) (_ bv334 32))))
 (let (($x5071 (bvsge ?x1429 ?x1045)))
 (let ((?x4133 (ite $x5071 (bvadd (bvsub ?x1429 ?x1045) (_ bv1 32)) (ite $x1735 (bvadd (bvsub ?x1429 ?x4827) (_ bv1 32)) ?x25766))))
 (let ((?x90921 (bvadd (bvmul (_ bv0 32) (_ bv12 32)) (_ bv1 32))))
 (let ((?x4347 (ite $x4176 (_ bv6 32) (ite $x40181 (_ bv5 32) (ite $x4722 (_ bv4 32) (ite $x1184 (_ bv3 32) (ite $x4045 (_ bv2 32) (_ bv1 32))))))))
 (let ((?x3058 (ite $x1735 (_ bv11 32) (ite $x4118 (_ bv10 32) (ite $x3265 (_ bv9 32) (ite $x997 (_ bv8 32) (ite $x6697 (_ bv7 32) ?x4347)))))))
 (let ((?x4212 (ite $x5071 (_ bv12 32) ?x3058)))
 (let ((?x64472 (bvadd ?x4212 ?x90921)))
 (let ((?x9477 (bvsub (ite (bvuge ?x64472 (_ bv2147483648 32)) (bvsub ?x64472 (_ bv0 32)) ?x64472) (_ bv1 32))))
 (let ((?x90810 (bvsmod ?x9477 (_ bv12 32))))
 (let ((?x39250 (bvadd ?x90810 (_ bv1 32))))
 (let ((?x59770 (ite (or (= ?x39250 (_ bv4 32)) (= ?x39250 (_ bv6 32)) (= ?x39250 (_ bv9 32)) (= ?x39250 (_ bv11 32))) (_ bv30 32) (_ bv31 32))))
 (let ((?x40296 (bvsdiv ?x9477 (_ bv12 32))))
 (let ((?x3145 (ite (and (bvuge ?x9477 (_ bv2147483648 32)) (and (distinct (_ bv0 32) ?x90810) true)) (bvsub ?x40296 (_ bv1 32)) ?x40296)))
 (let ((?x56113 (bvadd (_ bv0 32) ?x3145)))
 (let ((?x34535 (bvadd ?x4535 ?x56113)))
 (let (($x35652 (or (and (= (bvsmod ?x34535 (_ bv4 32)) (_ bv0 32)) (and (distinct (bvsmod ?x34535 (_ bv100 32)) (_ bv0 32)) true)) (= (bvsmod ?x34535 (_ bv400 32)) (_ bv0 32)))))
 (let ((?x6564 (ite (= ?x39250 (_ bv2 32)) (ite $x35652 (_ bv29 32) (_ bv28 32)) ?x59770)))
 (let (($x1231 (bvsgt (_ bv1 32) ?x4133)))
 (let ((?x19415 (ite $x1231 (_ bv1 32) (ite (bvsgt ?x4133 ?x6564) ?x6564 ?x4133))))
 (let ((?x88766 (ite (bvsgt (_ bv1 32) ?x19415) (_ bv1 32) (ite (bvsgt ?x19415 ?x6564) ?x6564 ?x19415))))
 (let ((?x85114 (ite (= (_ bv2 32) ?x39250) (ite $x35652 (_ bv31 32) (_ bv31 32)) (ite (= (_ bv1 32) ?x39250) (ite $x35652 (_ bv0 32) (_ bv0 32)) (_ bv0 32)))))
 (let ((?x46832 (ite (= (_ bv4 32) ?x39250) (ite $x35652 (_ bv91 32) (_ bv90 32)) (ite (= (_ bv3 32) ?x39250) (ite $x35652 (_ bv60 32) (_ bv59 32)) ?x85114))))
 (let ((?x36283 (ite (= (_ bv6 32) ?x39250) (ite $x35652 (_ bv152 32) (_ bv151 32)) (ite (= (_ bv5 32) ?x39250) (ite $x35652 (_ bv121 32) (_ bv120 32)) ?x46832))))
 (let ((?x76216 (ite (= (_ bv8 32) ?x39250) (ite $x35652 (_ bv213 32) (_ bv212 32)) (ite (= (_ bv7 32) ?x39250) (ite $x35652 (_ bv182 32) (_ bv181 32)) ?x36283))))
 (let ((?x70100 (ite (= (_ bv10 32) ?x39250) (ite $x35652 (_ bv274 32) (_ bv273 32)) (ite (= (_ bv9 32) ?x39250) (ite $x35652 (_ bv244 32) (_ bv243 32)) ?x76216))))
 (let ((?x87402 (ite (= (_ bv12 32) ?x39250) (ite $x35652 (_ bv335 32) (_ bv334 32)) (ite (= (_ bv11 32) ?x39250) (ite $x35652 (_ bv305 32) (_ bv304 32)) ?x70100))))
 (let ((?x39211 (bvadd (bvmul (_ bv365 32) (bvsub ?x34535 (_ bv1 32))) (bvsdiv (bvsub ?x34535 (_ bv1 32)) (_ bv4 32)))))
 (let ((?x26280 (bvadd (bvsub ?x39211 (bvsdiv (bvsub ?x34535 (_ bv1 32)) (_ bv100 32))) (bvsdiv (bvsub ?x34535 (_ bv1 32)) (_ bv400 32)))))
 (let ((?x6181 (bvadd (bvadd (bvsub (bvadd (bvadd ?x26280 ?x87402) (bvsub ?x88766 (_ bv1 32))) (_ bv730179 32)) (_ bv0 32)) (_ bv730179 32))))
 (let ((?x43907 (bvsmod ?x6181 (_ bv146097 32))))
 (let ((?x41372 (bvsdiv ?x43907 (_ bv36524 32))))
 (let ((?x58359 (ite (bvsle (_ bv4 32) ?x41372) (_ bv3 32) ?x41372)))
 (let ((?x2222 (bvsub ?x43907 (bvmul ?x58359 (_ bv36524 32)))))
 (let ((?x88724 (bvsmod ?x2222 (_ bv1461 32))))
 (let ((?x90798 (bvsdiv ?x88724 (_ bv365 32))))
 (let ((?x49992 (ite (bvsle (_ bv4 32) ?x90798) (_ bv3 32) ?x90798)))
 (let ((?x26649 (bvadd (bvadd (bvmul (bvsdiv ?x6181 (_ bv146097 32)) (_ bv400 32)) (bvmul ?x58359 (_ bv100 32))) (bvmul (bvsdiv ?x2222 (_ bv1461 32)) (_ bv4 32)))))
 (let ((?x32031 (bvadd (bvadd ?x26649 ?x49992) (_ bv1 32))))
 (let (($x2111 (or (and (= (bvsmod ?x32031 (_ bv4 32)) (_ bv0 32)) (and (distinct (bvsmod ?x32031 (_ bv100 32)) (_ bv0 32)) true)) (= (bvsmod ?x32031 (_ bv400 32)) (_ bv0 32)))))
 (let ((?x37129 (ite $x2111 (_ bv31 32) (_ bv31 32))))
 (let ((?x5839 (bvsub ?x88724 (bvmul ?x49992 (_ bv365 32)))))
 (let (($x35188 (bvsge ?x5839 ?x37129)))
 (let ((?x40761 (ite $x2111 (_ bv60 32) (_ bv59 32))))
 (let (($x47859 (bvsge ?x5839 ?x40761)))
 (let ((?x18547 (ite $x2111 (_ bv91 32) (_ bv90 32))))
 (let (($x58095 (bvsge ?x5839 ?x18547)))
 (let ((?x15572 (ite $x2111 (_ bv121 32) (_ bv120 32))))
 (let (($x15626 (bvsge ?x5839 ?x15572)))
 (let ((?x45561 (ite $x2111 (_ bv152 32) (_ bv151 32))))
 (let (($x13823 (bvsge ?x5839 ?x45561)))
 (let ((?x11665 (ite $x13823 (_ bv6 32) (ite $x15626 (_ bv5 32) (ite $x58095 (_ bv4 32) (ite $x47859 (_ bv3 32) (ite $x35188 (_ bv2 32) (_ bv1 32))))))))
 (let ((?x79619 (ite $x2111 (_ bv182 32) (_ bv181 32))))
 (let (($x37820 (bvsge ?x5839 ?x79619)))
 (let ((?x57592 (ite $x2111 (_ bv213 32) (_ bv212 32))))
 (let (($x76762 (bvsge ?x5839 ?x57592)))
 (let ((?x20892 (ite $x2111 (_ bv244 32) (_ bv243 32))))
 (let (($x28320 (bvsge ?x5839 ?x20892)))
 (let ((?x63928 (ite $x2111 (_ bv274 32) (_ bv273 32))))
 (let (($x43082 (bvsge ?x5839 ?x63928)))
 (let ((?x70937 (ite $x2111 (_ bv305 32) (_ bv304 32))))
 (let (($x26762 (bvsge ?x5839 ?x70937)))
 (let ((?x10065 (ite $x26762 (_ bv11 32) (ite $x43082 (_ bv10 32) (ite $x28320 (_ bv9 32) (ite $x76762 (_ bv8 32) (ite $x37820 (_ bv7 32) ?x11665)))))))
 (let ((?x11574 (ite $x2111 (_ bv335 32) (_ bv334 32))))
 (let (($x2194 (bvsge ?x5839 ?x11574)))
 (let (($x5114 (= (_ bv0 32) (_ bv0 32))))
 (let ((?x39898 (ite $x5114 ?x39250 (ite $x2194 (_ bv12 32) ?x10065))))
 (= x_plus_month ?x39898))))))))))))))))))))))))))))))))))))))))))))))))))))))))))))))))))))))))))))))))))))))))))))))))))))))))))
(assert
 (let ((?x956 (bvadd x_epoch (_ bv730179 32))))
 (let ((?x5257 (bvsmod ?x956 (_ bv146097 32))))
 (let ((?x3132 (bvsdiv ?x5257 (_ bv36524 32))))
 (let ((?x2099 (ite (bvsle (_ bv4 32) ?x3132) (_ bv3 32) ?x3132)))
 (let ((?x1271 (bvsub ?x5257 (bvmul ?x2099 (_ bv36524 32)))))
 (let ((?x3687 (bvsmod ?x1271 (_ bv1461 32))))
 (let ((?x4574 (bvsdiv ?x3687 (_ bv365 32))))
 (let ((?x2232 (ite (bvsle (_ bv4 32) ?x4574) (_ bv3 32) ?x4574)))
 (let ((?x2411 (bvadd (bvadd (bvmul (bvsdiv ?x956 (_ bv146097 32)) (_ bv400 32)) (bvmul ?x2099 (_ bv100 32))) (bvmul (bvsdiv ?x1271 (_ bv1461 32)) (_ bv4 32)))))
 (let ((?x4535 (bvadd (bvadd ?x2411 ?x2232) (_ bv1 32))))
 (let (($x2878 (or (and (= (bvsmod ?x4535 (_ bv4 32)) (_ bv0 32)) (and (distinct (bvsmod ?x4535 (_ bv100 32)) (_ bv0 32)) true)) (= (bvsmod ?x4535 (_ bv400 32)) (_ bv0 32)))))
 (let ((?x1429 (bvsub ?x3687 (bvmul ?x2232 (_ bv365 32)))))
 (let ((?x1425 (ite $x2878 (_ bv31 32) (_ bv31 32))))
 (let (($x4045 (bvsge ?x1429 ?x1425)))
 (let ((?x6705 (ite $x4045 (bvadd (bvsub ?x1429 ?x1425) (_ bv1 32)) (bvadd (bvsub ?x1429 (ite $x2878 (_ bv0 32) (_ bv0 32))) (_ bv1 32)))))
 (let ((?x713 (ite $x2878 (_ bv60 32) (_ bv59 32))))
 (let (($x1184 (bvsge ?x1429 ?x713)))
 (let ((?x2863 (ite $x2878 (_ bv91 32) (_ bv90 32))))
 (let (($x4722 (bvsge ?x1429 ?x2863)))
 (let ((?x6431 (ite $x4722 (bvadd (bvsub ?x1429 ?x2863) (_ bv1 32)) (ite $x1184 (bvadd (bvsub ?x1429 ?x713) (_ bv1 32)) ?x6705))))
 (let ((?x4959 (ite $x2878 (_ bv121 32) (_ bv120 32))))
 (let (($x40181 (bvsge ?x1429 ?x4959)))
 (let ((?x524 (ite $x2878 (_ bv152 32) (_ bv151 32))))
 (let (($x4176 (bvsge ?x1429 ?x524)))
 (let ((?x3345 (ite $x4176 (bvadd (bvsub ?x1429 ?x524) (_ bv1 32)) (ite $x40181 (bvadd (bvsub ?x1429 ?x4959) (_ bv1 32)) ?x6431))))
 (let ((?x1031 (ite $x2878 (_ bv182 32) (_ bv181 32))))
 (let (($x6697 (bvsge ?x1429 ?x1031)))
 (let ((?x2124 (ite $x2878 (_ bv213 32) (_ bv212 32))))
 (let (($x997 (bvsge ?x1429 ?x2124)))
 (let ((?x33122 (ite $x997 (bvadd (bvsub ?x1429 ?x2124) (_ bv1 32)) (ite $x6697 (bvadd (bvsub ?x1429 ?x1031) (_ bv1 32)) ?x3345))))
 (let ((?x2702 (ite $x2878 (_ bv244 32) (_ bv243 32))))
 (let (($x3265 (bvsge ?x1429 ?x2702)))
 (let ((?x689 (ite $x2878 (_ bv274 32) (_ bv273 32))))
 (let (($x4118 (bvsge ?x1429 ?x689)))
 (let ((?x25766 (ite $x4118 (bvadd (bvsub ?x1429 ?x689) (_ bv1 32)) (ite $x3265 (bvadd (bvsub ?x1429 ?x2702) (_ bv1 32)) ?x33122))))
 (let ((?x4827 (ite $x2878 (_ bv305 32) (_ bv304 32))))
 (let (($x1735 (bvsge ?x1429 ?x4827)))
 (let ((?x1045 (ite $x2878 (_ bv335 32) (_ bv334 32))))
 (let (($x5071 (bvsge ?x1429 ?x1045)))
 (let ((?x4133 (ite $x5071 (bvadd (bvsub ?x1429 ?x1045) (_ bv1 32)) (ite $x1735 (bvadd (bvsub ?x1429 ?x4827) (_ bv1 32)) ?x25766))))
 (let ((?x90921 (bvadd (bvmul (_ bv0 32) (_ bv12 32)) (_ bv1 32))))
 (let ((?x4347 (ite $x4176 (_ bv6 32) (ite $x40181 (_ bv5 32) (ite $x4722 (_ bv4 32) (ite $x1184 (_ bv3 32) (ite $x4045 (_ bv2 32) (_ bv1 32))))))))
 (let ((?x3058 (ite $x1735 (_ bv11 32) (ite $x4118 (_ bv10 32) (ite $x3265 (_ bv9 32) (ite $x997 (_ bv8 32) (ite $x6697 (_ bv7 32) ?x4347)))))))
 (let ((?x4212 (ite $x5071 (_ bv12 32) ?x3058)))
 (let ((?x64472 (bvadd ?x4212 ?x90921)))
 (let ((?x9477 (bvsub (ite (bvuge ?x64472 (_ bv2147483648 32)) (bvsub ?x64472 (_ bv0 32)) ?x64472) (_ bv1 32))))
 (let ((?x90810 (bvsmod ?x9477 (_ bv12 32))))
 (let ((?x39250 (bvadd ?x90810 (_ bv1 32))))
 (let ((?x59770 (ite (or (= ?x39250 (_ bv4 32)) (= ?x39250 (_ bv6 32)) (= ?x39250 (_ bv9 32)) (= ?x39250 (_ bv11 32))) (_ bv30 32) (_ bv31 32))))
 (let ((?x40296 (bvsdiv ?x9477 (_ bv12 32))))
 (let ((?x3145 (ite (and (bvuge ?x9477 (_ bv2147483648 32)) (and (distinct (_ bv0 32) ?x90810) true)) (bvsub ?x40296 (_ bv1 32)) ?x40296)))
 (let ((?x56113 (bvadd (_ bv0 32) ?x3145)))
 (let ((?x34535 (bvadd ?x4535 ?x56113)))
 (let (($x35652 (or (and (= (bvsmod ?x34535 (_ bv4 32)) (_ bv0 32)) (and (distinct (bvsmod ?x34535 (_ bv100 32)) (_ bv0 32)) true)) (= (bvsmod ?x34535 (_ bv400 32)) (_ bv0 32)))))
 (let ((?x6564 (ite (= ?x39250 (_ bv2 32)) (ite $x35652 (_ bv29 32) (_ bv28 32)) ?x59770)))
 (let (($x1231 (bvsgt (_ bv1 32) ?x4133)))
 (let ((?x19415 (ite $x1231 (_ bv1 32) (ite (bvsgt ?x4133 ?x6564) ?x6564 ?x4133))))
 (let ((?x88766 (ite (bvsgt (_ bv1 32) ?x19415) (_ bv1 32) (ite (bvsgt ?x19415 ?x6564) ?x6564 ?x19415))))
 (let ((?x85114 (ite (= (_ bv2 32) ?x39250) (ite $x35652 (_ bv31 32) (_ bv31 32)) (ite (= (_ bv1 32) ?x39250) (ite $x35652 (_ bv0 32) (_ bv0 32)) (_ bv0 32)))))
 (let ((?x46832 (ite (= (_ bv4 32) ?x39250) (ite $x35652 (_ bv91 32) (_ bv90 32)) (ite (= (_ bv3 32) ?x39250) (ite $x35652 (_ bv60 32) (_ bv59 32)) ?x85114))))
 (let ((?x36283 (ite (= (_ bv6 32) ?x39250) (ite $x35652 (_ bv152 32) (_ bv151 32)) (ite (= (_ bv5 32) ?x39250) (ite $x35652 (_ bv121 32) (_ bv120 32)) ?x46832))))
 (let ((?x76216 (ite (= (_ bv8 32) ?x39250) (ite $x35652 (_ bv213 32) (_ bv212 32)) (ite (= (_ bv7 32) ?x39250) (ite $x35652 (_ bv182 32) (_ bv181 32)) ?x36283))))
 (let ((?x70100 (ite (= (_ bv10 32) ?x39250) (ite $x35652 (_ bv274 32) (_ bv273 32)) (ite (= (_ bv9 32) ?x39250) (ite $x35652 (_ bv244 32) (_ bv243 32)) ?x76216))))
 (let ((?x87402 (ite (= (_ bv12 32) ?x39250) (ite $x35652 (_ bv335 32) (_ bv334 32)) (ite (= (_ bv11 32) ?x39250) (ite $x35652 (_ bv305 32) (_ bv304 32)) ?x70100))))
 (let ((?x39211 (bvadd (bvmul (_ bv365 32) (bvsub ?x34535 (_ bv1 32))) (bvsdiv (bvsub ?x34535 (_ bv1 32)) (_ bv4 32)))))
 (let ((?x26280 (bvadd (bvsub ?x39211 (bvsdiv (bvsub ?x34535 (_ bv1 32)) (_ bv100 32))) (bvsdiv (bvsub ?x34535 (_ bv1 32)) (_ bv400 32)))))
 (let ((?x6181 (bvadd (bvadd (bvsub (bvadd (bvadd ?x26280 ?x87402) (bvsub ?x88766 (_ bv1 32))) (_ bv730179 32)) (_ bv0 32)) (_ bv730179 32))))
 (let ((?x43907 (bvsmod ?x6181 (_ bv146097 32))))
 (let ((?x41372 (bvsdiv ?x43907 (_ bv36524 32))))
 (let ((?x58359 (ite (bvsle (_ bv4 32) ?x41372) (_ bv3 32) ?x41372)))
 (let ((?x2222 (bvsub ?x43907 (bvmul ?x58359 (_ bv36524 32)))))
 (let ((?x88724 (bvsmod ?x2222 (_ bv1461 32))))
 (let ((?x90798 (bvsdiv ?x88724 (_ bv365 32))))
 (let ((?x49992 (ite (bvsle (_ bv4 32) ?x90798) (_ bv3 32) ?x90798)))
 (let ((?x26649 (bvadd (bvadd (bvmul (bvsdiv ?x6181 (_ bv146097 32)) (_ bv400 32)) (bvmul ?x58359 (_ bv100 32))) (bvmul (bvsdiv ?x2222 (_ bv1461 32)) (_ bv4 32)))))
 (let ((?x32031 (bvadd (bvadd ?x26649 ?x49992) (_ bv1 32))))
 (let (($x2111 (or (and (= (bvsmod ?x32031 (_ bv4 32)) (_ bv0 32)) (and (distinct (bvsmod ?x32031 (_ bv100 32)) (_ bv0 32)) true)) (= (bvsmod ?x32031 (_ bv400 32)) (_ bv0 32)))))
 (let ((?x5839 (bvsub ?x88724 (bvmul ?x49992 (_ bv365 32)))))
 (let ((?x37129 (ite $x2111 (_ bv31 32) (_ bv31 32))))
 (let (($x35188 (bvsge ?x5839 ?x37129)))
 (let ((?x78171 (ite $x35188 (bvadd (bvsub ?x5839 ?x37129) (_ bv1 32)) (bvadd (bvsub ?x5839 (ite $x2111 (_ bv0 32) (_ bv0 32))) (_ bv1 32)))))
 (let ((?x40761 (ite $x2111 (_ bv60 32) (_ bv59 32))))
 (let (($x47859 (bvsge ?x5839 ?x40761)))
 (let ((?x18547 (ite $x2111 (_ bv91 32) (_ bv90 32))))
 (let (($x58095 (bvsge ?x5839 ?x18547)))
 (let ((?x85171 (ite $x58095 (bvadd (bvsub ?x5839 ?x18547) (_ bv1 32)) (ite $x47859 (bvadd (bvsub ?x5839 ?x40761) (_ bv1 32)) ?x78171))))
 (let ((?x15572 (ite $x2111 (_ bv121 32) (_ bv120 32))))
 (let (($x15626 (bvsge ?x5839 ?x15572)))
 (let ((?x45561 (ite $x2111 (_ bv152 32) (_ bv151 32))))
 (let (($x13823 (bvsge ?x5839 ?x45561)))
 (let ((?x77925 (ite $x13823 (bvadd (bvsub ?x5839 ?x45561) (_ bv1 32)) (ite $x15626 (bvadd (bvsub ?x5839 ?x15572) (_ bv1 32)) ?x85171))))
 (let ((?x79619 (ite $x2111 (_ bv182 32) (_ bv181 32))))
 (let (($x37820 (bvsge ?x5839 ?x79619)))
 (let ((?x57592 (ite $x2111 (_ bv213 32) (_ bv212 32))))
 (let (($x76762 (bvsge ?x5839 ?x57592)))
 (let ((?x5068 (ite $x76762 (bvadd (bvsub ?x5839 ?x57592) (_ bv1 32)) (ite $x37820 (bvadd (bvsub ?x5839 ?x79619) (_ bv1 32)) ?x77925))))
 (let ((?x20892 (ite $x2111 (_ bv244 32) (_ bv243 32))))
 (let (($x28320 (bvsge ?x5839 ?x20892)))
 (let ((?x63928 (ite $x2111 (_ bv274 32) (_ bv273 32))))
 (let (($x43082 (bvsge ?x5839 ?x63928)))
 (let ((?x29728 (ite $x43082 (bvadd (bvsub ?x5839 ?x63928) (_ bv1 32)) (ite $x28320 (bvadd (bvsub ?x5839 ?x20892) (_ bv1 32)) ?x5068))))
 (let ((?x70937 (ite $x2111 (_ bv305 32) (_ bv304 32))))
 (let (($x26762 (bvsge ?x5839 ?x70937)))
 (let ((?x11574 (ite $x2111 (_ bv335 32) (_ bv334 32))))
 (let (($x2194 (bvsge ?x5839 ?x11574)))
 (let ((?x50265 (ite $x2194 (bvadd (bvsub ?x5839 ?x11574) (_ bv1 32)) (ite $x26762 (bvadd (bvsub ?x5839 ?x70937) (_ bv1 32)) ?x29728))))
 (let (($x5114 (= (_ bv0 32) (_ bv0 32))))
 (let ((?x5438 (ite $x5114 ?x88766 ?x50265)))
 (= x_plus_day ?x5438))))))))))))))))))))))))))))))))))))))))))))))))))))))))))))))))))))))))))))))))))))))))))))))))))))))))))))))
(assert
 (bvsle x_plus_epoch (_ bv8400 32)))
(check-sat)
